HUN,8,6,853
0,35,1,31,3,33,4,84,2,82,5,99
3,96,4,64,1,50,5,33,0,100,2,58
4,93,1,100,3,69,5,73,0,50,2,82
3,26,0,97,4,62,5,39,2,81,1,13
3,25,1,27,4,5,5,52,0,26,2,13
2,89,4,91,0,93,1,49,5,65,3,4
2,97,1,19,4,97,0,3,5,42,3,5
5,33,1,66,0,86,4,75,3,61,2,2
